25 2
25 1000
10
7
13
19
26
3
5
9
16
16
12
19
23
20
8
19
2
12
17
9
11
18
29
3
6
35 35 0 1000 0 0
41 49 0 974 10 3
35 17 0 972 10 2
55 45 0 967 10 3
55 20 678 801 10 2
15 30 0 969 10 1
25 30 0 978 10 1
20 50 0 968 10 2
10 43 404 481 10 1
55 60 400 497 10 2
30 60 0 964 10 1
20 65 206 325 10 2
50 35 0 975 10 3
30 25 690 827 10 1
15 10 0 957 10 3
30 5 175 300 10 2
10 20 0 960 10 3
5 30 0 959 10 3
20 40 0 974 10 2
15 60 0 957 10 3
45 65 0 958 10 1
45 20 0 971 10 3
45 10 0 963 10 3
55 5 206 325 10 3
65 35 0 960 10 1
65 20 817 956 10 3
52 62 0 1000 5 4
17 57 0 1000 5 4
1 0
0 1
1 0
1 0
0 0
0 0
0 1
0 0
1 0
0 0
0 1
1 0
0 0
0 1
0 1
0 1
0 1
0 1
0 1
0 0
1 0
1 0
1 0
0 0
1 0
